NAME: tsp5_5
COMMENT: 5-tsp problem (Padberg/Rinaldi)
TYPE: TSP
DIMENSION: 5
EDGE_WEIGHT_TYPE : EUC_2D
NODE_COORD_SECTION
1.00 18.46 17.94
2.00 29.63 31.69
3.00 36.11 15.85
4.00 9.53 12.27
5.00 28.01 19.75
